\ENCODING=ISO-8859-1
\Problem name: IloCplex

Minimize
 obj: x(0) + 2 x(3) + 2 x(4) + 0 z(0)(0) + z(1)(0) + 0 z(1)(1) + 0 z(2)(2)
      + 2 z(3)(0) + 2 z(3)(1) + z(3)(2) + 0 z(3)(3) + 2 z(4)(0) + 3 z(4)(1)
      + z(4)(2) + 3 z(4)(3) + 0 z(4)(4)
Subject To
 lambda(0): x(3) + x(4)  = 1
 lambda(1): x(1) + x(4)  = 1
 lambda(2): x(0)  = 1
 lambda(3): x(2)  = 1
 lambda(4): x(3)  = 1
 mu(0):     x(0) + x(1) - z(1)(0) <= 1
 mu(1):     x(0) + x(2) - z(2)(0) <= 1
 mu(2):     x(0) + x(3) - z(3)(0) <= 1
 mu(3):     x(0) + x(4) - z(4)(0) <= 1
 mu(4):     x(1) + x(2) - z(2)(1) <= 1
 mu(5):     x(1) + x(3) - z(3)(1) <= 1
 mu(6):     x(1) + x(4) - z(4)(1) <= 1
 mu(7):     x(2) + x(3) - z(3)(2) <= 1
 mu(8):     x(2) + x(4) - z(4)(2) <= 1
 mu(9):     x(3) + x(4) - z(4)(3) <= 1
 gamma(0):  - x(0) + z(3)(0) + z(4)(0)  = 0
 gamma(1):  - x(1) + z(3)(1) + z(4)(1)  = 0
 gamma(2):  - x(2) + z(3)(2) + z(4)(2)  = 0
 gamma(3):  - x(0) + z(1)(0) + z(4)(0)  = 0
 gamma(4):  - x(2) + z(2)(1) + z(4)(2)  = 0
 gamma(5):  - x(3) + z(3)(1) + z(4)(3)  = 0
 gamma(6):  - x(1) + z(1)(0)  = 0
 gamma(7):  - x(2) + z(2)(0)  = 0
 gamma(8):  - x(3) + z(3)(0)  = 0
 gamma(9):  - x(4) + z(4)(0)  = 0
 gamma(10): - x(0) + z(2)(0)  = 0
 gamma(11): - x(1) + z(2)(1)  = 0
 gamma(12): - x(3) + z(3)(2)  = 0
 gamma(13): - x(4) + z(4)(2)  = 0
 gamma(14): - x(0) + z(3)(0)  = 0
 gamma(15): - x(1) + z(3)(1)  = 0
 gamma(16): - x(2) + z(3)(2)  = 0
 gamma(17): - x(4) + z(4)(3)  = 0
Bounds
 0 <= x(0) <= 1
 0 <= x(1) <= 1
 0 <= x(2) <= 1
 0 <= x(3) <= 1
 0 <= x(4) <= 1
 0 <= z(0)(0) <= 1
 0 <= z(1)(0) <= 1
 0 <= z(1)(1) <= 1
 0 <= z(2)(0) <= 1
 0 <= z(2)(1) <= 1
 0 <= z(2)(2) <= 1
 0 <= z(3)(0) <= 1
 0 <= z(3)(1) <= 1
 0 <= z(3)(2) <= 1
 0 <= z(3)(3) <= 1
 0 <= z(4)(0) <= 1
 0 <= z(4)(1) <= 1
 0 <= z(4)(2) <= 1
 0 <= z(4)(3) <= 1
 0 <= z(4)(4) <= 1
End
